(declare-fun bvlambda_24_ ()Bool         )
(declare-fun a125 () (Array (_ BitVec 1) (_ BitVec 2)))
(assert
(let (($e241 (select a125 true       )))
(let (($e260 (store a125 bvlambda_24_ $e241       )))
(let (($e261 (select $e260 false)))
(let (($e622 (store a125 false $e261)))
(
                 extract(select $e622 bvlambda_24_)
                                                                                                                                                                                                                                                                                                                                                                                                                                                                                                                                                                                                                                                                                                                                                                                                ))                                                                                                                                                                                                                                                                                                                                                                        ))                  )                                                                                                                                                                                          )
